NAME 
OBJSENSE MAX
ROWS
 N  OBJ
 L  packing[0]
 L  packing[1]
 L  packing[2]
 L  packing[3]
 L  packing[4]
 L  packing[5]
 L  packing[6]
 L  packing[7]
 L  packing[8]
 L  packing[9]
 L  packing[10]
 L  packing[11]
 L  packing[12]
 L  packing[13]
 L  packing[14]
 L  packing[15]
 L  packing[16]
 L  packing[17]
 L  packing[18]
 L  packing[19]
 L  packing[20]
 L  packing[21]
 L  packing[22]
 L  packing[23]
 L  packing[24]
 L  packing[25]
 L  packing[26]
 L  packing[27]
 L  packing[28]
 L  packing[29]
 L  packing[30]
 L  packing[31]
 L  packing[32]
 L  packing[33]
 L  packing[34]
 L  packing[35]
 L  packing[36]
 L  packing[37]
 L  packing[38]
 L  packing[39]
 L  packing[40]
 L  packing[41]
 L  packing[42]
 L  packing[43]
 L  packing[44]
 L  packing[45]
 L  packing[46]
 L  packing[47]
 L  packing[48]
 L  packing[49]
 L  R51     
COLUMNS
    MARKER    'MARKER'                 'INTORG'
    x[1]      OBJ       190
    x[1]      packing[0]  190
    x[1]      packing[1]  107
    x[1]      packing[2]  32
    x[1]      packing[3]  65
    x[1]      packing[4]  20
    x[1]      packing[5]  171
    x[1]      packing[6]  149
    x[1]      packing[7]  169
    x[1]      packing[8]  131
    x[1]      packing[9]  30
    x[1]      packing[10]  172
    x[1]      packing[12]  2
    x[1]      packing[13]  72
    x[1]      packing[15]  91
    x[1]      packing[16]  167
    x[1]      packing[17]  93
    x[1]      packing[18]  122
    x[1]      packing[19]  149
    x[1]      packing[20]  79
    x[1]      packing[21]  105
    x[1]      packing[22]  121
    x[1]      packing[25]  139
    x[1]      packing[26]  150
    x[1]      packing[27]  51
    x[1]      packing[29]  150
    x[1]      packing[31]  190
    x[1]      packing[32]  199
    x[1]      packing[33]  143
    x[1]      packing[34]  45
    x[1]      packing[35]  2
    x[1]      packing[36]  76
    x[1]      packing[37]  70
    x[1]      packing[38]  110
    x[1]      packing[39]  81
    x[1]      packing[40]  117
    x[1]      packing[43]  101
    x[1]      packing[44]  13
    x[1]      packing[45]  42
    x[1]      packing[46]  113
    x[1]      packing[48]  6
    x[1]      packing[49]  154
    x[2]      OBJ       48
    x[2]      packing[0]  126
    x[2]      packing[2]  146
    x[2]      packing[3]  199
    x[2]      packing[4]  22
    x[2]      packing[5]  129
    x[2]      packing[7]  81
    x[2]      packing[8]  6
    x[2]      packing[9]  4
    x[2]      packing[10]  27
    x[2]      packing[11]  167
    x[2]      packing[12]  56
    x[2]      packing[13]  9
    x[2]      packing[14]  150
    x[2]      packing[15]  59
    x[2]      packing[17]  111
    x[2]      packing[18]  111
    x[2]      packing[20]  111
    x[2]      packing[23]  117
    x[2]      packing[24]  40
    x[2]      packing[26]  96
    x[2]      packing[27]  7
    x[2]      packing[28]  86
    x[2]      packing[29]  189
    x[2]      packing[31]  109
    x[2]      packing[33]  87
    x[2]      packing[34]  185
    x[2]      packing[35]  92
    x[2]      packing[38]  16
    x[2]      packing[39]  47
    x[2]      packing[40]  59
    x[2]      packing[41]  160
    x[2]      packing[42]  146
    x[2]      packing[43]  65
    x[2]      packing[44]  179
    x[2]      packing[46]  128
    x[2]      packing[47]  191
    x[2]      packing[48]  124
    x[2]      packing[49]  178
    x[3]      OBJ       55
    x[3]      packing[0]  17
    x[3]      packing[1]  78
    x[3]      packing[3]  86
    x[3]      packing[4]  142
    x[3]      packing[5]  27
    x[3]      packing[6]  119
    x[3]      packing[7]  109
    x[3]      packing[8]  60
    x[3]      packing[9]  61
    x[3]      packing[10]  176
    x[3]      packing[14]  77
    x[3]      packing[15]  72
    x[3]      packing[17]  65
    x[3]      packing[18]  176
    x[3]      packing[19]  119
    x[3]      packing[20]  170
    x[3]      packing[21]  183
    x[3]      packing[22]  172
    x[3]      packing[23]  34
    x[3]      packing[24]  120
    x[3]      packing[25]  184
    x[3]      packing[29]  150
    x[3]      packing[30]  186
    x[3]      packing[31]  27
    x[3]      packing[32]  32
    x[3]      packing[34]  129
    x[3]      packing[35]  133
    x[3]      packing[36]  5
    x[3]      packing[37]  63
    x[3]      packing[38]  97
    x[3]      packing[39]  177
    x[3]      packing[40]  36
    x[3]      packing[41]  88
    x[3]      packing[42]  23
    x[3]      packing[44]  96
    x[3]      packing[45]  16
    x[3]      packing[47]  23
    x[3]      packing[48]  93
    x[3]      packing[49]  54
    x[4]      OBJ       112
    x[4]      packing[1]  163
    x[4]      packing[2]  102
    x[4]      packing[3]  124
    x[4]      packing[4]  110
    x[4]      packing[5]  157
    x[4]      packing[6]  185
    x[4]      packing[7]  11
    x[4]      packing[9]  88
    x[4]      packing[10]  35
    x[4]      packing[11]  190
    x[4]      packing[12]  125
    x[4]      packing[13]  61
    x[4]      packing[14]  131
    x[4]      packing[15]  165
    x[4]      packing[17]  134
    x[4]      packing[18]  166
    x[4]      packing[20]  78
    x[4]      packing[21]  53
    x[4]      packing[23]  180
    x[4]      packing[24]  104
    x[4]      packing[25]  89
    x[4]      packing[27]  148
    x[4]      packing[28]  129
    x[4]      packing[29]  130
    x[4]      packing[30]  53
    x[4]      packing[31]  47
    x[4]      packing[32]  129
    x[4]      packing[33]  78
    x[4]      packing[34]  41
    x[4]      packing[35]  31
    x[4]      packing[37]  189
    x[4]      packing[39]  193
    x[4]      packing[40]  72
    x[4]      packing[41]  163
    x[4]      packing[42]  18
    x[4]      packing[43]  150
    x[4]      packing[45]  55
    x[4]      packing[46]  18
    x[4]      packing[47]  78
    x[4]      packing[49]  198
    x[5]      OBJ       164
    x[5]      packing[1]  95
    x[5]      packing[2]  104
    x[5]      packing[3]  15
    x[5]      packing[4]  179
    x[5]      packing[5]  136
    x[5]      packing[6]  145
    x[5]      packing[7]  136
    x[5]      packing[9]  153
    x[5]      packing[11]  83
    x[5]      packing[12]  195
    x[5]      packing[14]  82
    x[5]      packing[15]  144
    x[5]      packing[17]  7
    x[5]      packing[18]  66
    x[5]      packing[19]  88
    x[5]      packing[20]  167
    x[5]      packing[23]  96
    x[5]      packing[24]  158
    x[5]      packing[25]  117
    x[5]      packing[26]  117
    x[5]      packing[28]  87
    x[5]      packing[30]  116
    x[5]      packing[31]  15
    x[5]      packing[32]  5
    x[5]      packing[35]  73
    x[5]      packing[36]  36
    x[5]      packing[37]  185
    x[5]      packing[38]  128
    x[5]      packing[39]  131
    x[5]      packing[40]  65
    x[5]      packing[42]  114
    x[5]      packing[43]  19
    x[5]      packing[44]  31
    x[5]      packing[45]  181
    x[5]      packing[46]  37
    x[5]      packing[48]  191
    x[5]      packing[49]  3
    x[5]      R51       1
    x[6]      OBJ       66
    x[6]      packing[0]  48
    x[6]      packing[1]  59
    x[6]      packing[2]  79
    x[6]      packing[3]  105
    x[6]      packing[5]  127
    x[6]      packing[6]  114
    x[6]      packing[7]  175
    x[6]      packing[8]  132
    x[6]      packing[9]  89
    x[6]      packing[10]  39
    x[6]      packing[13]  118
    x[6]      packing[14]  40
    x[6]      packing[15]  14
    x[6]      packing[17]  107
    x[6]      packing[18]  32
    x[6]      packing[19]  117
    x[6]      packing[20]  41
    x[6]      packing[21]  10
    x[6]      packing[23]  165
    x[6]      packing[24]  55
    x[6]      packing[25]  68
    x[6]      packing[28]  24
    x[6]      packing[29]  198
    x[6]      packing[31]  174
    x[6]      packing[32]  15
    x[6]      packing[34]  119
    x[6]      packing[35]  148
    x[6]      packing[36]  133
    x[6]      packing[37]  79
    x[6]      packing[38]  122
    x[6]      packing[39]  27
    x[6]      packing[41]  142
    x[6]      packing[42]  46
    x[6]      packing[44]  29
    x[6]      packing[45]  38
    x[6]      packing[46]  57
    x[6]      packing[48]  38
    x[6]      packing[49]  27
    x[7]      OBJ       137
    x[7]      packing[0]  144
    x[7]      packing[2]  100
    x[7]      packing[3]  160
    x[7]      packing[7]  29
    x[7]      packing[8]  171
    x[7]      packing[10]  153
    x[7]      packing[11]  120
    x[7]      packing[12]  134
    x[7]      packing[13]  189
    x[7]      packing[14]  58
    x[7]      packing[15]  89
    x[7]      packing[16]  1
    x[7]      packing[18]  72
    x[7]      packing[19]  153
    x[7]      packing[20]  139
    x[7]      packing[21]  156
    x[7]      packing[22]  33
    x[7]      packing[23]  151
    x[7]      packing[24]  11
    x[7]      packing[27]  114
    x[7]      packing[29]  42
    x[7]      packing[30]  35
    x[7]      packing[31]  25
    x[7]      packing[32]  23
    x[7]      packing[33]  164
    x[7]      packing[34]  105
    x[7]      packing[36]  41
    x[7]      packing[39]  179
    x[7]      packing[40]  139
    x[7]      packing[41]  29
    x[7]      packing[46]  111
    x[7]      packing[47]  16
    x[7]      packing[48]  36
    x[7]      packing[49]  105
    x[7]      R51       1
    x[8]      OBJ       193
    x[8]      packing[0]  64
    x[8]      packing[1]  178
    x[8]      packing[2]  135
    x[8]      packing[3]  64
    x[8]      packing[4]  133
    x[8]      packing[5]  156
    x[8]      packing[7]  147
    x[8]      packing[9]  45
    x[8]      packing[10]  70
    x[8]      packing[11]  89
    x[8]      packing[12]  37
    x[8]      packing[14]  179
    x[8]      packing[15]  85
    x[8]      packing[17]  141
    x[8]      packing[18]  160
    x[8]      packing[19]  43
    x[8]      packing[21]  170
    x[8]      packing[22]  172
    x[8]      packing[25]  39
    x[8]      packing[27]  1
    x[8]      packing[28]  43
    x[8]      packing[29]  155
    x[8]      packing[30]  26
    x[8]      packing[31]  27
    x[8]      packing[35]  197
    x[8]      packing[36]  124
    x[8]      packing[37]  4
    x[8]      packing[39]  110
    x[8]      packing[40]  137
    x[8]      packing[44]  58
    x[8]      packing[45]  10
    x[8]      packing[47]  50
    x[8]      packing[48]  63
    x[8]      packing[49]  132
    x[8]      R51       1
    x[9]      OBJ       169
    x[9]      packing[0]  95
    x[9]      packing[1]  54
    x[9]      packing[3]  76
    x[9]      packing[4]  83
    x[9]      packing[6]  12
    x[9]      packing[7]  59
    x[9]      packing[8]  162
    x[9]      packing[9]  194
    x[9]      packing[12]  71
    x[9]      packing[15]  26
    x[9]      packing[16]  158
    x[9]      packing[17]  188
    x[9]      packing[18]  26
    x[9]      packing[19]  40
    x[9]      packing[21]  91
    x[9]      packing[22]  90
    x[9]      packing[23]  124
    x[9]      packing[25]  28
    x[9]      packing[28]  14
    x[9]      packing[29]  106
    x[9]      packing[30]  28
    x[9]      packing[31]  98
    x[9]      packing[33]  179
    x[9]      packing[34]  38
    x[9]      packing[35]  50
    x[9]      packing[36]  11
    x[9]      packing[37]  10
    x[9]      packing[38]  148
    x[9]      packing[39]  118
    x[9]      packing[40]  122
    x[9]      packing[42]  105
    x[9]      packing[48]  165
    x[9]      packing[49]  146
    x[9]      R51       1
    x[10]     OBJ       153
    x[10]     packing[0]  110
    x[10]     packing[1]  44
    x[10]     packing[2]  8
    x[10]     packing[3]  70
    x[10]     packing[4]  189
    x[10]     packing[5]  111
    x[10]     packing[6]  137
    x[10]     packing[8]  196
    x[10]     packing[9]  95
    x[10]     packing[11]  15
    x[10]     packing[12]  141
    x[10]     packing[13]  16
    x[10]     packing[14]  189
    x[10]     packing[15]  72
    x[10]     packing[17]  130
    x[10]     packing[18]  149
    x[10]     packing[19]  39
    x[10]     packing[20]  167
    x[10]     packing[21]  132
    x[10]     packing[22]  149
    x[10]     packing[23]  91
    x[10]     packing[24]  90
    x[10]     packing[25]  11
    x[10]     packing[26]  76
    x[10]     packing[27]  128
    x[10]     packing[28]  153
    x[10]     packing[29]  135
    x[10]     packing[31]  192
    x[10]     packing[32]  7
    x[10]     packing[33]  65
    x[10]     packing[36]  78
    x[10]     packing[37]  191
    x[10]     packing[38]  151
    x[10]     packing[39]  180
    x[10]     packing[40]  153
    x[10]     packing[41]  169
    x[10]     packing[42]  93
    x[10]     packing[44]  79
    x[10]     packing[46]  186
    x[10]     packing[48]  29
    x[10]     packing[49]  143
    x[10]     R51       1
    x[11]     OBJ       27
    x[11]     packing[0]  169
    x[11]     packing[3]  167
    x[11]     packing[4]  36
    x[11]     packing[5]  110
    x[11]     packing[6]  160
    x[11]     packing[7]  26
    x[11]     packing[8]  107
    x[11]     packing[9]  175
    x[11]     packing[10]  107
    x[11]     packing[11]  177
    x[11]     packing[12]  13
    x[11]     packing[13]  120
    x[11]     packing[14]  109
    x[11]     packing[15]  22
    x[11]     packing[16]  156
    x[11]     packing[18]  150
    x[11]     packing[19]  115
    x[11]     packing[20]  9
    x[11]     packing[22]  132
    x[11]     packing[23]  45
    x[11]     packing[25]  101
    x[11]     packing[26]  126
    x[11]     packing[27]  180
    x[11]     packing[29]  104
    x[11]     packing[30]  73
    x[11]     packing[31]  9
    x[11]     packing[32]  2
    x[11]     packing[33]  155
    x[11]     packing[34]  165
    x[11]     packing[35]  23
    x[11]     packing[36]  198
    x[11]     packing[38]  105
    x[11]     packing[39]  16
    x[11]     packing[40]  145
    x[11]     packing[43]  74
    x[11]     packing[45]  27
    x[11]     packing[46]  157
    x[11]     packing[47]  137
    x[11]     packing[48]  22
    x[11]     packing[49]  136
    x[12]     OBJ       93
    x[12]     packing[1]  32
    x[12]     packing[2]  52
    x[12]     packing[3]  17
    x[12]     packing[4]  142
    x[12]     packing[5]  3
    x[12]     packing[6]  27
    x[12]     packing[7]  124
    x[12]     packing[9]  69
    x[12]     packing[10]  183
    x[12]     packing[11]  165
    x[12]     packing[13]  11
    x[12]     packing[15]  40
    x[12]     packing[16]  6
    x[12]     packing[17]  116
    x[12]     packing[18]  139
    x[12]     packing[19]  194
    x[12]     packing[20]  158
    x[12]     packing[21]  157
    x[12]     packing[22]  143
    x[12]     packing[25]  173
    x[12]     packing[26]  48
    x[12]     packing[29]  166
    x[12]     packing[30]  99
    x[12]     packing[31]  59
    x[12]     packing[32]  185
    x[12]     packing[33]  37
    x[12]     packing[34]  122
    x[12]     packing[38]  130
    x[12]     packing[40]  41
    x[12]     packing[41]  136
    x[12]     packing[42]  91
    x[12]     packing[45]  6
    x[12]     packing[46]  171
    x[12]     packing[47]  130
    x[12]     packing[49]  156
    x[13]     OBJ       133
    x[13]     packing[1]  104
    x[13]     packing[2]  166
    x[13]     packing[3]  139
    x[13]     packing[4]  112
    x[13]     packing[5]  138
    x[13]     packing[6]  175
    x[13]     packing[7]  143
    x[13]     packing[8]  99
    x[13]     packing[9]  126
    x[13]     packing[10]  178
    x[13]     packing[11]  90
    x[13]     packing[12]  13
    x[13]     packing[13]  33
    x[13]     packing[14]  157
    x[13]     packing[15]  3
    x[13]     packing[16]  146
    x[13]     packing[20]  193
    x[13]     packing[22]  143
    x[13]     packing[23]  137
    x[13]     packing[25]  44
    x[13]     packing[26]  150
    x[13]     packing[27]  186
    x[13]     packing[28]  43
    x[13]     packing[29]  173
    x[13]     packing[30]  90
    x[13]     packing[31]  130
    x[13]     packing[32]  128
    x[13]     packing[33]  65
    x[13]     packing[34]  166
    x[13]     packing[36]  196
    x[13]     packing[37]  60
    x[13]     packing[38]  83
    x[13]     packing[39]  161
    x[13]     packing[40]  148
    x[13]     packing[41]  95
    x[13]     packing[44]  44
    x[13]     packing[47]  112
    x[13]     packing[48]  115
    x[13]     packing[49]  52
    x[14]     OBJ       98
    x[14]     packing[0]  102
    x[14]     packing[2]  107
    x[14]     packing[3]  21
    x[14]     packing[4]  19
    x[14]     packing[5]  114
    x[14]     packing[7]  185
    x[14]     packing[9]  61
    x[14]     packing[10]  72
    x[14]     packing[11]  76
    x[14]     packing[12]  198
    x[14]     packing[13]  193
    x[14]     packing[14]  140
    x[14]     packing[17]  31
    x[14]     packing[18]  124
    x[14]     packing[20]  196
    x[14]     packing[21]  90
    x[14]     packing[22]  164
    x[14]     packing[23]  30
    x[14]     packing[24]  69
    x[14]     packing[27]  47
    x[14]     packing[28]  125
    x[14]     packing[29]  13
    x[14]     packing[30]  156
    x[14]     packing[31]  196
    x[14]     packing[32]  79
    x[14]     packing[33]  160
    x[14]     packing[34]  48
    x[14]     packing[35]  186
    x[14]     packing[36]  89
    x[14]     packing[37]  110
    x[14]     packing[39]  198
    x[14]     packing[40]  50
    x[14]     packing[41]  16
    x[14]     packing[42]  85
    x[14]     packing[44]  44
    x[14]     packing[47]  26
    x[14]     packing[48]  4
    x[15]     OBJ       1
    x[15]     packing[1]  59
    x[15]     packing[2]  4
    x[15]     packing[3]  24
    x[15]     packing[5]  31
    x[15]     packing[6]  114
    x[15]     packing[7]  117
    x[15]     packing[8]  165
    x[15]     packing[10]  105
    x[15]     packing[11]  71
    x[15]     packing[12]  91
    x[15]     packing[13]  72
    x[15]     packing[14]  42
    x[15]     packing[15]  72
    x[15]     packing[16]  76
    x[15]     packing[17]  119
    x[15]     packing[18]  86
    x[15]     packing[19]  130
    x[15]     packing[22]  55
    x[15]     packing[23]  183
    x[15]     packing[24]  173
    x[15]     packing[28]  124
    x[15]     packing[29]  198
    x[15]     packing[30]  71
    x[15]     packing[31]  179
    x[15]     packing[32]  87
    x[15]     packing[33]  134
    x[15]     packing[35]  25
    x[15]     packing[36]  131
    x[15]     packing[37]  15
    x[15]     packing[38]  132
    x[15]     packing[39]  167
    x[15]     packing[40]  185
    x[15]     packing[41]  14
    x[15]     packing[42]  130
    x[15]     packing[44]  79
    x[15]     packing[45]  161
    x[15]     packing[46]  76
    x[15]     packing[49]  190
    x[16]     OBJ       2
    x[16]     packing[0]  182
    x[16]     packing[1]  93
    x[16]     packing[2]  175
    x[16]     packing[3]  109
    x[16]     packing[5]  1
    x[16]     packing[7]  62
    x[16]     packing[8]  170
    x[16]     packing[9]  138
    x[16]     packing[10]  17
    x[16]     packing[11]  99
    x[16]     packing[12]  16
    x[16]     packing[13]  82
    x[16]     packing[15]  44
    x[16]     packing[16]  11
    x[16]     packing[17]  156
    x[16]     packing[18]  141
    x[16]     packing[21]  105
    x[16]     packing[23]  21
    x[16]     packing[25]  91
    x[16]     packing[26]  57
    x[16]     packing[27]  46
    x[16]     packing[28]  79
    x[16]     packing[29]  32
    x[16]     packing[31]  119
    x[16]     packing[32]  130
    x[16]     packing[33]  89
    x[16]     packing[36]  74
    x[16]     packing[37]  66
    x[16]     packing[38]  155
    x[16]     packing[39]  93
    x[16]     packing[40]  68
    x[16]     packing[42]  58
    x[16]     packing[44]  39
    x[16]     packing[46]  141
    x[16]     packing[47]  61
    x[16]     packing[49]  43
    x[17]     OBJ       197
    x[17]     packing[0]  186
    x[17]     packing[1]  48
    x[17]     packing[3]  61
    x[17]     packing[4]  137
    x[17]     packing[6]  149
    x[17]     packing[8]  115
    x[17]     packing[11]  183
    x[17]     packing[12]  53
    x[17]     packing[13]  80
    x[17]     packing[15]  131
    x[17]     packing[16]  170
    x[17]     packing[18]  197
    x[17]     packing[19]  113
    x[17]     packing[20]  30
    x[17]     packing[21]  112
    x[17]     packing[22]  198
    x[17]     packing[23]  9
    x[17]     packing[25]  17
    x[17]     packing[27]  80
    x[17]     packing[28]  6
    x[17]     packing[31]  197
    x[17]     packing[32]  49
    x[17]     packing[33]  84
    x[17]     packing[34]  176
    x[17]     packing[36]  64
    x[17]     packing[37]  10
    x[17]     packing[38]  22
    x[17]     packing[39]  176
    x[17]     packing[40]  52
    x[17]     packing[41]  52
    x[17]     packing[43]  55
    x[17]     packing[44]  99
    x[17]     packing[45]  23
    x[17]     packing[46]  73
    x[17]     packing[47]  86
    x[17]     packing[48]  149
    x[17]     packing[49]  22
    x[18]     OBJ       115
    x[18]     packing[0]  46
    x[18]     packing[2]  130
    x[18]     packing[3]  178
    x[18]     packing[5]  17
    x[18]     packing[6]  76
    x[18]     packing[7]  11
    x[18]     packing[8]  47
    x[18]     packing[9]  65
    x[18]     packing[10]  135
    x[18]     packing[11]  131
    x[18]     packing[13]  132
    x[18]     packing[14]  102
    x[18]     packing[15]  7
    x[18]     packing[16]  39
    x[18]     packing[19]  129
    x[18]     packing[21]  23
    x[18]     packing[22]  45
    x[18]     packing[23]  101
    x[18]     packing[24]  94
    x[18]     packing[25]  36
    x[18]     packing[26]  187
    x[18]     packing[27]  9
    x[18]     packing[28]  100
    x[18]     packing[29]  183
    x[18]     packing[30]  110
    x[18]     packing[31]  92
    x[18]     packing[33]  193
    x[18]     packing[34]  116
    x[18]     packing[36]  171
    x[18]     packing[37]  193
    x[18]     packing[38]  54
    x[18]     packing[39]  93
    x[18]     packing[41]  86
    x[18]     packing[42]  12
    x[18]     packing[43]  44
    x[18]     packing[44]  85
    x[18]     packing[45]  54
    x[18]     packing[48]  17
    x[18]     packing[49]  98
    x[19]     OBJ       111
    x[19]     packing[0]  91
    x[19]     packing[1]  173
    x[19]     packing[2]  199
    x[19]     packing[4]  156
    x[19]     packing[5]  111
    x[19]     packing[6]  124
    x[19]     packing[7]  173
    x[19]     packing[9]  98
    x[19]     packing[10]  67
    x[19]     packing[11]  94
    x[19]     packing[12]  65
    x[19]     packing[13]  97
    x[19]     packing[14]  154
    x[19]     packing[15]  27
    x[19]     packing[16]  43
    x[19]     packing[21]  94
    x[19]     packing[24]  147
    x[19]     packing[25]  36
    x[19]     packing[26]  62
    x[19]     packing[29]  146
    x[19]     packing[30]  163
    x[19]     packing[31]  72
    x[19]     packing[32]  174
    x[19]     packing[35]  180
    x[19]     packing[36]  171
    x[19]     packing[37]  41
    x[19]     packing[38]  106
    x[19]     packing[39]  135
    x[19]     packing[40]  2
    x[19]     packing[41]  145
    x[19]     packing[42]  48
    x[19]     packing[43]  16
    x[19]     packing[44]  145
    x[19]     packing[45]  9
    x[19]     packing[47]  194
    x[19]     packing[48]  164
    x[19]     packing[49]  58
    x[19]     R51       1
    x[20]     OBJ       72
    x[20]     packing[0]  61
    x[20]     packing[1]  67
    x[20]     packing[2]  99
    x[20]     packing[3]  181
    x[20]     packing[4]  146
    x[20]     packing[5]  22
    x[20]     packing[6]  167
    x[20]     packing[7]  56
    x[20]     packing[8]  115
    x[20]     packing[9]  45
    x[20]     packing[10]  68
    x[20]     packing[11]  172
    x[20]     packing[12]  70
    x[20]     packing[15]  178
    x[20]     packing[16]  85
    x[20]     packing[18]  101
    x[20]     packing[20]  36
    x[20]     packing[21]  150
    x[20]     packing[22]  114
    x[20]     packing[24]  196
    x[20]     packing[26]  43
    x[20]     packing[28]  91
    x[20]     packing[29]  133
    x[20]     packing[31]  100
    x[20]     packing[33]  43
    x[20]     packing[34]  66
    x[20]     packing[35]  172
    x[20]     packing[36]  184
    x[20]     packing[37]  147
    x[20]     packing[40]  1
    x[20]     packing[41]  108
    x[20]     packing[43]  35
    x[20]     packing[44]  36
    x[20]     packing[48]  156
    x[20]     packing[49]  4
    MARKER    'MARKER'                 'INTEND'
RHS
    RHS1      packing[0]  816
    RHS1      packing[1]  677
    RHS1      packing[2]  819
    RHS1      packing[3]  931
    RHS1      packing[4]  813
    RHS1      packing[5]  781
    RHS1      packing[6]  927
    RHS1      packing[7]  907
    RHS1      packing[8]  838
    RHS1      packing[9]  768
    RHS1      packing[10]  802
    RHS1      packing[11]  961
    RHS1      packing[12]  640
    RHS1      packing[13]  643
    RHS1      packing[14]  805
    RHS1      packing[15]  671
    RHS1      packing[16]  529
    RHS1      packing[17]  699
    RHS1      packing[18]  1009
    RHS1      packing[19]  715
    RHS1      packing[20]  787
    RHS1      packing[21]  816
    RHS1      packing[22]  866
    RHS1      packing[23]  742
    RHS1      packing[24]  629
    RHS1      packing[25]  587
    RHS1      packing[26]  556
    RHS1      packing[27]  499
    RHS1      packing[28]  552
    RHS1      packing[29]  1202
    RHS1      packing[30]  603
    RHS1      packing[31]  1029
    RHS1      packing[32]  622
    RHS1      packing[33]  838
    RHS1      packing[34]  761
    RHS1      packing[35]  656
    RHS1      packing[36]  891
    RHS1      packing[37]  717
    RHS1      packing[38]  780
    RHS1      packing[39]  1141
    RHS1      packing[40]  796
    RHS1      packing[41]  702
    RHS1      packing[42]  485
    RHS1      packing[43]  280
    RHS1      packing[44]  528
    RHS1      packing[45]  311
    RHS1      packing[46]  634
    RHS1      packing[47]  552
    RHS1      packing[48]  686
    RHS1      packing[49]  950
    RHS1      R51       5
BOUNDS
 BV BND1      x[1]    
 BV BND1      x[2]    
 BV BND1      x[3]    
 BV BND1      x[4]    
 BV BND1      x[5]    
 BV BND1      x[6]    
 BV BND1      x[7]    
 BV BND1      x[8]    
 BV BND1      x[9]    
 BV BND1      x[10]   
 BV BND1      x[11]   
 BV BND1      x[12]   
 BV BND1      x[13]   
 BV BND1      x[14]   
 BV BND1      x[15]   
 BV BND1      x[16]   
 BV BND1      x[17]   
 BV BND1      x[18]   
 BV BND1      x[19]   
 BV BND1      x[20]   
ENDATA
